NAME: ulysses16.tsp
TYPE: TSP
COMMENT: Odyssey of Ulysses (Groetschel/Padberg)
DIMENSION: 6
EDGE_WEIGHT_TYPE: GEO
DISPLAY_DATA_TYPE: COORD_DISPLAY
NODE_COORD_SECTION
 1 41.17 13.05
 2 36.08 -5.21
 3 38.47 15.13
 4 38.15 15.35
 5 37.51 15.17
 6 35.49 14.32
 EOF

